
(set-option :produce-models true)
(set-option :inline-size-limit 10000)

(declare-const var0 String)

(push 1)
(assert (str.in.re var0 (re.* (re.range "\x01" "\xff"))))
(assert (str.in.re var0 (re.++ (re.*? re.allchar) (re.++ (re.union (re.union (re.union (re.union (re.++ ((_ re.capture 1) (re.++ (re.range "0" "9") (re.++ (str.to.re "-") (re.++ (re.++ (re.range "0" "9") (re.range "0" "9")) (re.* (re.union (str.to.re " ") (re.union (str.to.re "\u{0b}") (re.union (str.to.re "\u{0a}") (re.union (str.to.re "\u{0d}") (re.union (str.to.re "\u{09}") (str.to.re "\u{0c}"))))))))))) (re.++ ((_ re.capture 2) (re.++ (str.to.re "o") (re.++ (str.to.re "f") (re.+ (str.to.re " "))))) ((_ re.capture 3) (re.++ (re.union (re.++ (str.to.re "") (re.union (str.to.re " ") (re.union (str.to.re "\u{0b}") (re.union (str.to.re "\u{0a}") (re.union (str.to.re "\u{0d}") (re.union (str.to.re "\u{09}") (str.to.re "\u{0c}"))))))) (str.to.re "")) (re.++ (re.range "0" "9") (re.++ (re.range "0" "9") (re.++ (re.range "0" "9") (re.++ (re.range "0" "9") (re.range "0" "9"))))))))) (re.++ ((_ re.capture 4) (re.++ (re.range "0" "9") (re.++ (str.to.re "-") (re.++ (re.++ (re.range "0" "9") (re.range "0" "9")) (re.* (re.union (str.to.re " ") (re.union (str.to.re "\u{0b}") (re.union (str.to.re "\u{0a}") (re.union (str.to.re "\u{0d}") (re.union (str.to.re "\u{09}") (str.to.re "\u{0c}"))))))))))) (re.++ ((_ re.capture 5) (re.++ (str.to.re "o") (re.++ (str.to.re "f") (re.+ (str.to.re " "))))) ((_ re.capture 6) (re.++ (re.union (re.++ (str.to.re "") (re.union (str.to.re " ") (re.union (str.to.re "\u{0b}") (re.union (str.to.re "\u{0a}") (re.union (str.to.re "\u{0d}") (re.union (str.to.re "\u{09}") (str.to.re "\u{0c}"))))))) (str.to.re "")) (re.++ (re.range "0" "9") (re.++ (re.range "0" "9") (re.++ (re.range "0" "9") (re.range "0" "9"))))))))) (re.++ ((_ re.capture 7) (re.++ (re.range "0" "9") (re.++ (str.to.re "-") (re.++ (re.++ (re.range "0" "9") (re.range "0" "9")) (re.* (re.union (str.to.re " ") (re.union (str.to.re "\u{0b}") (re.union (str.to.re "\u{0a}") (re.union (str.to.re "\u{0d}") (re.union (str.to.re "\u{09}") (str.to.re "\u{0c}"))))))))))) (re.++ ((_ re.capture 8) (re.++ (str.to.re "o") (re.++ (str.to.re "f") (re.+ (str.to.re " "))))) ((_ re.capture 9) (re.++ (re.union (re.++ (str.to.re "") (re.union (str.to.re " ") (re.union (str.to.re "\u{0b}") (re.union (str.to.re "\u{0a}") (re.union (str.to.re "\u{0d}") (re.union (str.to.re "\u{09}") (str.to.re "\u{0c}"))))))) (str.to.re "")) (re.++ (re.range "0" "9") (re.++ (re.range "0" "9") (re.range "0" "9")))))))) (re.++ ((_ re.capture 10) (re.++ (re.range "0" "9") (re.++ (str.to.re "-") (re.++ (re.++ (re.range "0" "9") (re.range "0" "9")) (re.* (re.union (str.to.re " ") (re.union (str.to.re "\u{0b}") (re.union (str.to.re "\u{0a}") (re.union (str.to.re "\u{0d}") (re.union (str.to.re "\u{09}") (str.to.re "\u{0c}"))))))))))) (re.++ ((_ re.capture 11) (re.++ (str.to.re "o") (re.++ (str.to.re "f") (re.+ (str.to.re " "))))) ((_ re.capture 12) (re.++ (re.union (re.++ (str.to.re "") (re.union (str.to.re " ") (re.union (str.to.re "\u{0b}") (re.union (str.to.re "\u{0a}") (re.union (str.to.re "\u{0d}") (re.union (str.to.re "\u{09}") (str.to.re "\u{0c}"))))))) (str.to.re "")) (re.++ (re.range "0" "9") (re.range "0" "9"))))))) (re.++ ((_ re.capture 13) (re.++ (re.range "0" "9") (re.++ (str.to.re "-") (re.++ (re.++ (re.range "0" "9") (re.range "0" "9")) (re.* (re.union (str.to.re " ") (re.union (str.to.re "\u{0b}") (re.union (str.to.re "\u{0a}") (re.union (str.to.re "\u{0d}") (re.union (str.to.re "\u{09}") (str.to.re "\u{0c}"))))))))))) (re.++ ((_ re.capture 14) (re.++ (str.to.re "o") (re.++ (str.to.re "f") (re.+ (str.to.re " "))))) ((_ re.capture 15) (re.++ (re.union (re.++ (str.to.re "") (re.union (str.to.re " ") (re.union (str.to.re "\u{0b}") (re.union (str.to.re "\u{0a}") (re.union (str.to.re "\u{0d}") (re.union (str.to.re "\u{09}") (str.to.re "\u{0c}"))))))) (str.to.re "")) (re.range "0" "9")))))) re.all))))	; match!==null
(assert (not (str.in.re ((_ str.extract 1) var0 (re.++ (re.*? re.allchar) (re.++ (re.union (re.union (re.union (re.union (re.++ ((_ re.capture 1) (re.++ (re.range "0" "9") (re.++ (str.to.re "-") (re.++ (re.++ (re.range "0" "9") (re.range "0" "9")) (re.* (re.union (str.to.re " ") (re.union (str.to.re "\u{0b}") (re.union (str.to.re "\u{0a}") (re.union (str.to.re "\u{0d}") (re.union (str.to.re "\u{09}") (str.to.re "\u{0c}"))))))))))) (re.++ ((_ re.capture 2) (re.++ (str.to.re "o") (re.++ (str.to.re "f") (re.+ (str.to.re " "))))) ((_ re.capture 3) (re.++ (re.union (re.++ (str.to.re "") (re.union (str.to.re " ") (re.union (str.to.re "\u{0b}") (re.union (str.to.re "\u{0a}") (re.union (str.to.re "\u{0d}") (re.union (str.to.re "\u{09}") (str.to.re "\u{0c}"))))))) (str.to.re "")) (re.++ (re.range "0" "9") (re.++ (re.range "0" "9") (re.++ (re.range "0" "9") (re.++ (re.range "0" "9") (re.range "0" "9"))))))))) (re.++ ((_ re.capture 4) (re.++ (re.range "0" "9") (re.++ (str.to.re "-") (re.++ (re.++ (re.range "0" "9") (re.range "0" "9")) (re.* (re.union (str.to.re " ") (re.union (str.to.re "\u{0b}") (re.union (str.to.re "\u{0a}") (re.union (str.to.re "\u{0d}") (re.union (str.to.re "\u{09}") (str.to.re "\u{0c}"))))))))))) (re.++ ((_ re.capture 5) (re.++ (str.to.re "o") (re.++ (str.to.re "f") (re.+ (str.to.re " "))))) ((_ re.capture 6) (re.++ (re.union (re.++ (str.to.re "") (re.union (str.to.re " ") (re.union (str.to.re "\u{0b}") (re.union (str.to.re "\u{0a}") (re.union (str.to.re "\u{0d}") (re.union (str.to.re "\u{09}") (str.to.re "\u{0c}"))))))) (str.to.re "")) (re.++ (re.range "0" "9") (re.++ (re.range "0" "9") (re.++ (re.range "0" "9") (re.range "0" "9"))))))))) (re.++ ((_ re.capture 7) (re.++ (re.range "0" "9") (re.++ (str.to.re "-") (re.++ (re.++ (re.range "0" "9") (re.range "0" "9")) (re.* (re.union (str.to.re " ") (re.union (str.to.re "\u{0b}") (re.union (str.to.re "\u{0a}") (re.union (str.to.re "\u{0d}") (re.union (str.to.re "\u{09}") (str.to.re "\u{0c}"))))))))))) (re.++ ((_ re.capture 8) (re.++ (str.to.re "o") (re.++ (str.to.re "f") (re.+ (str.to.re " "))))) ((_ re.capture 9) (re.++ (re.union (re.++ (str.to.re "") (re.union (str.to.re " ") (re.union (str.to.re "\u{0b}") (re.union (str.to.re "\u{0a}") (re.union (str.to.re "\u{0d}") (re.union (str.to.re "\u{09}") (str.to.re "\u{0c}"))))))) (str.to.re "")) (re.++ (re.range "0" "9") (re.++ (re.range "0" "9") (re.range "0" "9")))))))) (re.++ ((_ re.capture 10) (re.++ (re.range "0" "9") (re.++ (str.to.re "-") (re.++ (re.++ (re.range "0" "9") (re.range "0" "9")) (re.* (re.union (str.to.re " ") (re.union (str.to.re "\u{0b}") (re.union (str.to.re "\u{0a}") (re.union (str.to.re "\u{0d}") (re.union (str.to.re "\u{09}") (str.to.re "\u{0c}"))))))))))) (re.++ ((_ re.capture 11) (re.++ (str.to.re "o") (re.++ (str.to.re "f") (re.+ (str.to.re " "))))) ((_ re.capture 12) (re.++ (re.union (re.++ (str.to.re "") (re.union (str.to.re " ") (re.union (str.to.re "\u{0b}") (re.union (str.to.re "\u{0a}") (re.union (str.to.re "\u{0d}") (re.union (str.to.re "\u{09}") (str.to.re "\u{0c}"))))))) (str.to.re "")) (re.++ (re.range "0" "9") (re.range "0" "9"))))))) (re.++ ((_ re.capture 13) (re.++ (re.range "0" "9") (re.++ (str.to.re "-") (re.++ (re.++ (re.range "0" "9") (re.range "0" "9")) (re.* (re.union (str.to.re " ") (re.union (str.to.re "\u{0b}") (re.union (str.to.re "\u{0a}") (re.union (str.to.re "\u{0d}") (re.union (str.to.re "\u{09}") (str.to.re "\u{0c}"))))))))))) (re.++ ((_ re.capture 14) (re.++ (str.to.re "o") (re.++ (str.to.re "f") (re.+ (str.to.re " "))))) ((_ re.capture 15) (re.++ (re.union (re.++ (str.to.re "") (re.union (str.to.re " ") (re.union (str.to.re "\u{0b}") (re.union (str.to.re "\u{0a}") (re.union (str.to.re "\u{0d}") (re.union (str.to.re "\u{09}") (str.to.re "\u{0c}"))))))) (str.to.re "")) (re.range "0" "9")))))) re.all))) (str.to.re "\x00"))))
;match[1]!==null
(assert (str.in.re ((_ str.extract 1) var0 (re.++ (re.*? re.allchar) (re.++ (re.union (re.union (re.union (re.union (re.++ ((_ re.capture 1) (re.++ (re.range "0" "9") (re.++ (str.to.re "-") (re.++ (re.++ (re.range "0" "9") (re.range "0" "9")) (re.* (re.union (str.to.re " ") (re.union (str.to.re "\u{0b}") (re.union (str.to.re "\u{0a}") (re.union (str.to.re "\u{0d}") (re.union (str.to.re "\u{09}") (str.to.re "\u{0c}"))))))))))) (re.++ ((_ re.capture 2) (re.++ (str.to.re "o") (re.++ (str.to.re "f") (re.+ (str.to.re " "))))) ((_ re.capture 3) (re.++ (re.union (re.++ (str.to.re "") (re.union (str.to.re " ") (re.union (str.to.re "\u{0b}") (re.union (str.to.re "\u{0a}") (re.union (str.to.re "\u{0d}") (re.union (str.to.re "\u{09}") (str.to.re "\u{0c}"))))))) (str.to.re "")) (re.++ (re.range "0" "9") (re.++ (re.range "0" "9") (re.++ (re.range "0" "9") (re.++ (re.range "0" "9") (re.range "0" "9"))))))))) (re.++ ((_ re.capture 4) (re.++ (re.range "0" "9") (re.++ (str.to.re "-") (re.++ (re.++ (re.range "0" "9") (re.range "0" "9")) (re.* (re.union (str.to.re " ") (re.union (str.to.re "\u{0b}") (re.union (str.to.re "\u{0a}") (re.union (str.to.re "\u{0d}") (re.union (str.to.re "\u{09}") (str.to.re "\u{0c}"))))))))))) (re.++ ((_ re.capture 5) (re.++ (str.to.re "o") (re.++ (str.to.re "f") (re.+ (str.to.re " "))))) ((_ re.capture 6) (re.++ (re.union (re.++ (str.to.re "") (re.union (str.to.re " ") (re.union (str.to.re "\u{0b}") (re.union (str.to.re "\u{0a}") (re.union (str.to.re "\u{0d}") (re.union (str.to.re "\u{09}") (str.to.re "\u{0c}"))))))) (str.to.re "")) (re.++ (re.range "0" "9") (re.++ (re.range "0" "9") (re.++ (re.range "0" "9") (re.range "0" "9"))))))))) (re.++ ((_ re.capture 7) (re.++ (re.range "0" "9") (re.++ (str.to.re "-") (re.++ (re.++ (re.range "0" "9") (re.range "0" "9")) (re.* (re.union (str.to.re " ") (re.union (str.to.re "\u{0b}") (re.union (str.to.re "\u{0a}") (re.union (str.to.re "\u{0d}") (re.union (str.to.re "\u{09}") (str.to.re "\u{0c}"))))))))))) (re.++ ((_ re.capture 8) (re.++ (str.to.re "o") (re.++ (str.to.re "f") (re.+ (str.to.re " "))))) ((_ re.capture 9) (re.++ (re.union (re.++ (str.to.re "") (re.union (str.to.re " ") (re.union (str.to.re "\u{0b}") (re.union (str.to.re "\u{0a}") (re.union (str.to.re "\u{0d}") (re.union (str.to.re "\u{09}") (str.to.re "\u{0c}"))))))) (str.to.re "")) (re.++ (re.range "0" "9") (re.++ (re.range "0" "9") (re.range "0" "9")))))))) (re.++ ((_ re.capture 10) (re.++ (re.range "0" "9") (re.++ (str.to.re "-") (re.++ (re.++ (re.range "0" "9") (re.range "0" "9")) (re.* (re.union (str.to.re " ") (re.union (str.to.re "\u{0b}") (re.union (str.to.re "\u{0a}") (re.union (str.to.re "\u{0d}") (re.union (str.to.re "\u{09}") (str.to.re "\u{0c}"))))))))))) (re.++ ((_ re.capture 11) (re.++ (str.to.re "o") (re.++ (str.to.re "f") (re.+ (str.to.re " "))))) ((_ re.capture 12) (re.++ (re.union (re.++ (str.to.re "") (re.union (str.to.re " ") (re.union (str.to.re "\u{0b}") (re.union (str.to.re "\u{0a}") (re.union (str.to.re "\u{0d}") (re.union (str.to.re "\u{09}") (str.to.re "\u{0c}"))))))) (str.to.re "")) (re.++ (re.range "0" "9") (re.range "0" "9"))))))) (re.++ ((_ re.capture 13) (re.++ (re.range "0" "9") (re.++ (str.to.re "-") (re.++ (re.++ (re.range "0" "9") (re.range "0" "9")) (re.* (re.union (str.to.re " ") (re.union (str.to.re "\u{0b}") (re.union (str.to.re "\u{0a}") (re.union (str.to.re "\u{0d}") (re.union (str.to.re "\u{09}") (str.to.re "\u{0c}"))))))))))) (re.++ ((_ re.capture 14) (re.++ (str.to.re "o") (re.++ (str.to.re "f") (re.+ (str.to.re " "))))) ((_ re.capture 15) (re.++ (re.union (re.++ (str.to.re "") (re.union (str.to.re " ") (re.union (str.to.re "\u{0b}") (re.union (str.to.re "\u{0a}") (re.union (str.to.re "\u{0d}") (re.union (str.to.re "\u{09}") (str.to.re "\u{0c}"))))))) (str.to.re "")) (re.range "0" "9")))))) re.all))) (re.++ re.all(re.+ (re.range "a" "z")) re.all) ))
;/[a-z]+/.test(match[1]) == true
(check-sat)
(get-model)
(pop 1)
(push 1)
(assert (str.in.re var0 (re.* (re.range "\x01" "\xff"))))
(assert (str.in.re var0 (re.++ (re.*? re.allchar) (re.++ (re.union (re.union (re.union (re.union (re.++ ((_ re.capture 1) (re.++ (re.range "0" "9") (re.++ (str.to.re "-") (re.++ (re.++ (re.range "0" "9") (re.range "0" "9")) (re.* (re.union (str.to.re " ") (re.union (str.to.re "\u{0b}") (re.union (str.to.re "\u{0a}") (re.union (str.to.re "\u{0d}") (re.union (str.to.re "\u{09}") (str.to.re "\u{0c}"))))))))))) (re.++ ((_ re.capture 2) (re.++ (str.to.re "o") (re.++ (str.to.re "f") (re.+ (str.to.re " "))))) ((_ re.capture 3) (re.++ (re.union (re.++ (str.to.re "") (re.union (str.to.re " ") (re.union (str.to.re "\u{0b}") (re.union (str.to.re "\u{0a}") (re.union (str.to.re "\u{0d}") (re.union (str.to.re "\u{09}") (str.to.re "\u{0c}"))))))) (str.to.re "")) (re.++ (re.range "0" "9") (re.++ (re.range "0" "9") (re.++ (re.range "0" "9") (re.++ (re.range "0" "9") (re.range "0" "9"))))))))) (re.++ ((_ re.capture 4) (re.++ (re.range "0" "9") (re.++ (str.to.re "-") (re.++ (re.++ (re.range "0" "9") (re.range "0" "9")) (re.* (re.union (str.to.re " ") (re.union (str.to.re "\u{0b}") (re.union (str.to.re "\u{0a}") (re.union (str.to.re "\u{0d}") (re.union (str.to.re "\u{09}") (str.to.re "\u{0c}"))))))))))) (re.++ ((_ re.capture 5) (re.++ (str.to.re "o") (re.++ (str.to.re "f") (re.+ (str.to.re " "))))) ((_ re.capture 6) (re.++ (re.union (re.++ (str.to.re "") (re.union (str.to.re " ") (re.union (str.to.re "\u{0b}") (re.union (str.to.re "\u{0a}") (re.union (str.to.re "\u{0d}") (re.union (str.to.re "\u{09}") (str.to.re "\u{0c}"))))))) (str.to.re "")) (re.++ (re.range "0" "9") (re.++ (re.range "0" "9") (re.++ (re.range "0" "9") (re.range "0" "9"))))))))) (re.++ ((_ re.capture 7) (re.++ (re.range "0" "9") (re.++ (str.to.re "-") (re.++ (re.++ (re.range "0" "9") (re.range "0" "9")) (re.* (re.union (str.to.re " ") (re.union (str.to.re "\u{0b}") (re.union (str.to.re "\u{0a}") (re.union (str.to.re "\u{0d}") (re.union (str.to.re "\u{09}") (str.to.re "\u{0c}"))))))))))) (re.++ ((_ re.capture 8) (re.++ (str.to.re "o") (re.++ (str.to.re "f") (re.+ (str.to.re " "))))) ((_ re.capture 9) (re.++ (re.union (re.++ (str.to.re "") (re.union (str.to.re " ") (re.union (str.to.re "\u{0b}") (re.union (str.to.re "\u{0a}") (re.union (str.to.re "\u{0d}") (re.union (str.to.re "\u{09}") (str.to.re "\u{0c}"))))))) (str.to.re "")) (re.++ (re.range "0" "9") (re.++ (re.range "0" "9") (re.range "0" "9")))))))) (re.++ ((_ re.capture 10) (re.++ (re.range "0" "9") (re.++ (str.to.re "-") (re.++ (re.++ (re.range "0" "9") (re.range "0" "9")) (re.* (re.union (str.to.re " ") (re.union (str.to.re "\u{0b}") (re.union (str.to.re "\u{0a}") (re.union (str.to.re "\u{0d}") (re.union (str.to.re "\u{09}") (str.to.re "\u{0c}"))))))))))) (re.++ ((_ re.capture 11) (re.++ (str.to.re "o") (re.++ (str.to.re "f") (re.+ (str.to.re " "))))) ((_ re.capture 12) (re.++ (re.union (re.++ (str.to.re "") (re.union (str.to.re " ") (re.union (str.to.re "\u{0b}") (re.union (str.to.re "\u{0a}") (re.union (str.to.re "\u{0d}") (re.union (str.to.re "\u{09}") (str.to.re "\u{0c}"))))))) (str.to.re "")) (re.++ (re.range "0" "9") (re.range "0" "9"))))))) (re.++ ((_ re.capture 13) (re.++ (re.range "0" "9") (re.++ (str.to.re "-") (re.++ (re.++ (re.range "0" "9") (re.range "0" "9")) (re.* (re.union (str.to.re " ") (re.union (str.to.re "\u{0b}") (re.union (str.to.re "\u{0a}") (re.union (str.to.re "\u{0d}") (re.union (str.to.re "\u{09}") (str.to.re "\u{0c}"))))))))))) (re.++ ((_ re.capture 14) (re.++ (str.to.re "o") (re.++ (str.to.re "f") (re.+ (str.to.re " "))))) ((_ re.capture 15) (re.++ (re.union (re.++ (str.to.re "") (re.union (str.to.re " ") (re.union (str.to.re "\u{0b}") (re.union (str.to.re "\u{0a}") (re.union (str.to.re "\u{0d}") (re.union (str.to.re "\u{09}") (str.to.re "\u{0c}"))))))) (str.to.re "")) (re.range "0" "9")))))) re.all))))	; match!==null
(assert (not (str.in.re ((_ str.extract 1) var0 (re.++ (re.*? re.allchar) (re.++ (re.union (re.union (re.union (re.union (re.++ ((_ re.capture 1) (re.++ (re.range "0" "9") (re.++ (str.to.re "-") (re.++ (re.++ (re.range "0" "9") (re.range "0" "9")) (re.* (re.union (str.to.re " ") (re.union (str.to.re "\u{0b}") (re.union (str.to.re "\u{0a}") (re.union (str.to.re "\u{0d}") (re.union (str.to.re "\u{09}") (str.to.re "\u{0c}"))))))))))) (re.++ ((_ re.capture 2) (re.++ (str.to.re "o") (re.++ (str.to.re "f") (re.+ (str.to.re " "))))) ((_ re.capture 3) (re.++ (re.union (re.++ (str.to.re "") (re.union (str.to.re " ") (re.union (str.to.re "\u{0b}") (re.union (str.to.re "\u{0a}") (re.union (str.to.re "\u{0d}") (re.union (str.to.re "\u{09}") (str.to.re "\u{0c}"))))))) (str.to.re "")) (re.++ (re.range "0" "9") (re.++ (re.range "0" "9") (re.++ (re.range "0" "9") (re.++ (re.range "0" "9") (re.range "0" "9"))))))))) (re.++ ((_ re.capture 4) (re.++ (re.range "0" "9") (re.++ (str.to.re "-") (re.++ (re.++ (re.range "0" "9") (re.range "0" "9")) (re.* (re.union (str.to.re " ") (re.union (str.to.re "\u{0b}") (re.union (str.to.re "\u{0a}") (re.union (str.to.re "\u{0d}") (re.union (str.to.re "\u{09}") (str.to.re "\u{0c}"))))))))))) (re.++ ((_ re.capture 5) (re.++ (str.to.re "o") (re.++ (str.to.re "f") (re.+ (str.to.re " "))))) ((_ re.capture 6) (re.++ (re.union (re.++ (str.to.re "") (re.union (str.to.re " ") (re.union (str.to.re "\u{0b}") (re.union (str.to.re "\u{0a}") (re.union (str.to.re "\u{0d}") (re.union (str.to.re "\u{09}") (str.to.re "\u{0c}"))))))) (str.to.re "")) (re.++ (re.range "0" "9") (re.++ (re.range "0" "9") (re.++ (re.range "0" "9") (re.range "0" "9"))))))))) (re.++ ((_ re.capture 7) (re.++ (re.range "0" "9") (re.++ (str.to.re "-") (re.++ (re.++ (re.range "0" "9") (re.range "0" "9")) (re.* (re.union (str.to.re " ") (re.union (str.to.re "\u{0b}") (re.union (str.to.re "\u{0a}") (re.union (str.to.re "\u{0d}") (re.union (str.to.re "\u{09}") (str.to.re "\u{0c}"))))))))))) (re.++ ((_ re.capture 8) (re.++ (str.to.re "o") (re.++ (str.to.re "f") (re.+ (str.to.re " "))))) ((_ re.capture 9) (re.++ (re.union (re.++ (str.to.re "") (re.union (str.to.re " ") (re.union (str.to.re "\u{0b}") (re.union (str.to.re "\u{0a}") (re.union (str.to.re "\u{0d}") (re.union (str.to.re "\u{09}") (str.to.re "\u{0c}"))))))) (str.to.re "")) (re.++ (re.range "0" "9") (re.++ (re.range "0" "9") (re.range "0" "9")))))))) (re.++ ((_ re.capture 10) (re.++ (re.range "0" "9") (re.++ (str.to.re "-") (re.++ (re.++ (re.range "0" "9") (re.range "0" "9")) (re.* (re.union (str.to.re " ") (re.union (str.to.re "\u{0b}") (re.union (str.to.re "\u{0a}") (re.union (str.to.re "\u{0d}") (re.union (str.to.re "\u{09}") (str.to.re "\u{0c}"))))))))))) (re.++ ((_ re.capture 11) (re.++ (str.to.re "o") (re.++ (str.to.re "f") (re.+ (str.to.re " "))))) ((_ re.capture 12) (re.++ (re.union (re.++ (str.to.re "") (re.union (str.to.re " ") (re.union (str.to.re "\u{0b}") (re.union (str.to.re "\u{0a}") (re.union (str.to.re "\u{0d}") (re.union (str.to.re "\u{09}") (str.to.re "\u{0c}"))))))) (str.to.re "")) (re.++ (re.range "0" "9") (re.range "0" "9"))))))) (re.++ ((_ re.capture 13) (re.++ (re.range "0" "9") (re.++ (str.to.re "-") (re.++ (re.++ (re.range "0" "9") (re.range "0" "9")) (re.* (re.union (str.to.re " ") (re.union (str.to.re "\u{0b}") (re.union (str.to.re "\u{0a}") (re.union (str.to.re "\u{0d}") (re.union (str.to.re "\u{09}") (str.to.re "\u{0c}"))))))))))) (re.++ ((_ re.capture 14) (re.++ (str.to.re "o") (re.++ (str.to.re "f") (re.+ (str.to.re " "))))) ((_ re.capture 15) (re.++ (re.union (re.++ (str.to.re "") (re.union (str.to.re " ") (re.union (str.to.re "\u{0b}") (re.union (str.to.re "\u{0a}") (re.union (str.to.re "\u{0d}") (re.union (str.to.re "\u{09}") (str.to.re "\u{0c}"))))))) (str.to.re "")) (re.range "0" "9")))))) re.all))) (str.to.re "\x00"))))	
;match[1]!==null
(assert (not (str.in.re ((_ str.extract 1) var0 (re.++ (re.*? re.allchar) (re.++ (re.union (re.union (re.union (re.union (re.++ ((_ re.capture 1) (re.++ (re.range "0" "9") (re.++ (str.to.re "-") (re.++ (re.++ (re.range "0" "9") (re.range "0" "9")) (re.* (re.union (str.to.re " ") (re.union (str.to.re "\u{0b}") (re.union (str.to.re "\u{0a}") (re.union (str.to.re "\u{0d}") (re.union (str.to.re "\u{09}") (str.to.re "\u{0c}"))))))))))) (re.++ ((_ re.capture 2) (re.++ (str.to.re "o") (re.++ (str.to.re "f") (re.+ (str.to.re " "))))) ((_ re.capture 3) (re.++ (re.union (re.++ (str.to.re "") (re.union (str.to.re " ") (re.union (str.to.re "\u{0b}") (re.union (str.to.re "\u{0a}") (re.union (str.to.re "\u{0d}") (re.union (str.to.re "\u{09}") (str.to.re "\u{0c}"))))))) (str.to.re "")) (re.++ (re.range "0" "9") (re.++ (re.range "0" "9") (re.++ (re.range "0" "9") (re.++ (re.range "0" "9") (re.range "0" "9"))))))))) (re.++ ((_ re.capture 4) (re.++ (re.range "0" "9") (re.++ (str.to.re "-") (re.++ (re.++ (re.range "0" "9") (re.range "0" "9")) (re.* (re.union (str.to.re " ") (re.union (str.to.re "\u{0b}") (re.union (str.to.re "\u{0a}") (re.union (str.to.re "\u{0d}") (re.union (str.to.re "\u{09}") (str.to.re "\u{0c}"))))))))))) (re.++ ((_ re.capture 5) (re.++ (str.to.re "o") (re.++ (str.to.re "f") (re.+ (str.to.re " "))))) ((_ re.capture 6) (re.++ (re.union (re.++ (str.to.re "") (re.union (str.to.re " ") (re.union (str.to.re "\u{0b}") (re.union (str.to.re "\u{0a}") (re.union (str.to.re "\u{0d}") (re.union (str.to.re "\u{09}") (str.to.re "\u{0c}"))))))) (str.to.re "")) (re.++ (re.range "0" "9") (re.++ (re.range "0" "9") (re.++ (re.range "0" "9") (re.range "0" "9"))))))))) (re.++ ((_ re.capture 7) (re.++ (re.range "0" "9") (re.++ (str.to.re "-") (re.++ (re.++ (re.range "0" "9") (re.range "0" "9")) (re.* (re.union (str.to.re " ") (re.union (str.to.re "\u{0b}") (re.union (str.to.re "\u{0a}") (re.union (str.to.re "\u{0d}") (re.union (str.to.re "\u{09}") (str.to.re "\u{0c}"))))))))))) (re.++ ((_ re.capture 8) (re.++ (str.to.re "o") (re.++ (str.to.re "f") (re.+ (str.to.re " "))))) ((_ re.capture 9) (re.++ (re.union (re.++ (str.to.re "") (re.union (str.to.re " ") (re.union (str.to.re "\u{0b}") (re.union (str.to.re "\u{0a}") (re.union (str.to.re "\u{0d}") (re.union (str.to.re "\u{09}") (str.to.re "\u{0c}"))))))) (str.to.re "")) (re.++ (re.range "0" "9") (re.++ (re.range "0" "9") (re.range "0" "9")))))))) (re.++ ((_ re.capture 10) (re.++ (re.range "0" "9") (re.++ (str.to.re "-") (re.++ (re.++ (re.range "0" "9") (re.range "0" "9")) (re.* (re.union (str.to.re " ") (re.union (str.to.re "\u{0b}") (re.union (str.to.re "\u{0a}") (re.union (str.to.re "\u{0d}") (re.union (str.to.re "\u{09}") (str.to.re "\u{0c}"))))))))))) (re.++ ((_ re.capture 11) (re.++ (str.to.re "o") (re.++ (str.to.re "f") (re.+ (str.to.re " "))))) ((_ re.capture 12) (re.++ (re.union (re.++ (str.to.re "") (re.union (str.to.re " ") (re.union (str.to.re "\u{0b}") (re.union (str.to.re "\u{0a}") (re.union (str.to.re "\u{0d}") (re.union (str.to.re "\u{09}") (str.to.re "\u{0c}"))))))) (str.to.re "")) (re.++ (re.range "0" "9") (re.range "0" "9"))))))) (re.++ ((_ re.capture 13) (re.++ (re.range "0" "9") (re.++ (str.to.re "-") (re.++ (re.++ (re.range "0" "9") (re.range "0" "9")) (re.* (re.union (str.to.re " ") (re.union (str.to.re "\u{0b}") (re.union (str.to.re "\u{0a}") (re.union (str.to.re "\u{0d}") (re.union (str.to.re "\u{09}") (str.to.re "\u{0c}"))))))))))) (re.++ ((_ re.capture 14) (re.++ (str.to.re "o") (re.++ (str.to.re "f") (re.+ (str.to.re " "))))) ((_ re.capture 15) (re.++ (re.union (re.++ (str.to.re "") (re.union (str.to.re " ") (re.union (str.to.re "\u{0b}") (re.union (str.to.re "\u{0a}") (re.union (str.to.re "\u{0d}") (re.union (str.to.re "\u{09}") (str.to.re "\u{0c}"))))))) (str.to.re "")) (re.range "0" "9")))))) re.all))) (re.++ re.all(re.+ (re.range "a" "z")) re.all) )))
;/[a-z]+/.test(match[1]) == false	
(check-sat)
(get-model)
(pop 1)
(push 1)
(assert (str.in.re var0 (re.* (re.range "\x01" "\xff"))))
(assert (str.in.re var0 (re.++ (re.*? re.allchar) (re.++ (re.union (re.union (re.union (re.union (re.++ ((_ re.capture 1) (re.++ (re.range "0" "9") (re.++ (str.to.re "-") (re.++ (re.++ (re.range "0" "9") (re.range "0" "9")) (re.* (re.union (str.to.re " ") (re.union (str.to.re "\u{0b}") (re.union (str.to.re "\u{0a}") (re.union (str.to.re "\u{0d}") (re.union (str.to.re "\u{09}") (str.to.re "\u{0c}"))))))))))) (re.++ ((_ re.capture 2) (re.++ (str.to.re "o") (re.++ (str.to.re "f") (re.+ (str.to.re " "))))) ((_ re.capture 3) (re.++ (re.union (re.++ (str.to.re "") (re.union (str.to.re " ") (re.union (str.to.re "\u{0b}") (re.union (str.to.re "\u{0a}") (re.union (str.to.re "\u{0d}") (re.union (str.to.re "\u{09}") (str.to.re "\u{0c}"))))))) (str.to.re "")) (re.++ (re.range "0" "9") (re.++ (re.range "0" "9") (re.++ (re.range "0" "9") (re.++ (re.range "0" "9") (re.range "0" "9"))))))))) (re.++ ((_ re.capture 4) (re.++ (re.range "0" "9") (re.++ (str.to.re "-") (re.++ (re.++ (re.range "0" "9") (re.range "0" "9")) (re.* (re.union (str.to.re " ") (re.union (str.to.re "\u{0b}") (re.union (str.to.re "\u{0a}") (re.union (str.to.re "\u{0d}") (re.union (str.to.re "\u{09}") (str.to.re "\u{0c}"))))))))))) (re.++ ((_ re.capture 5) (re.++ (str.to.re "o") (re.++ (str.to.re "f") (re.+ (str.to.re " "))))) ((_ re.capture 6) (re.++ (re.union (re.++ (str.to.re "") (re.union (str.to.re " ") (re.union (str.to.re "\u{0b}") (re.union (str.to.re "\u{0a}") (re.union (str.to.re "\u{0d}") (re.union (str.to.re "\u{09}") (str.to.re "\u{0c}"))))))) (str.to.re "")) (re.++ (re.range "0" "9") (re.++ (re.range "0" "9") (re.++ (re.range "0" "9") (re.range "0" "9"))))))))) (re.++ ((_ re.capture 7) (re.++ (re.range "0" "9") (re.++ (str.to.re "-") (re.++ (re.++ (re.range "0" "9") (re.range "0" "9")) (re.* (re.union (str.to.re " ") (re.union (str.to.re "\u{0b}") (re.union (str.to.re "\u{0a}") (re.union (str.to.re "\u{0d}") (re.union (str.to.re "\u{09}") (str.to.re "\u{0c}"))))))))))) (re.++ ((_ re.capture 8) (re.++ (str.to.re "o") (re.++ (str.to.re "f") (re.+ (str.to.re " "))))) ((_ re.capture 9) (re.++ (re.union (re.++ (str.to.re "") (re.union (str.to.re " ") (re.union (str.to.re "\u{0b}") (re.union (str.to.re "\u{0a}") (re.union (str.to.re "\u{0d}") (re.union (str.to.re "\u{09}") (str.to.re "\u{0c}"))))))) (str.to.re "")) (re.++ (re.range "0" "9") (re.++ (re.range "0" "9") (re.range "0" "9")))))))) (re.++ ((_ re.capture 10) (re.++ (re.range "0" "9") (re.++ (str.to.re "-") (re.++ (re.++ (re.range "0" "9") (re.range "0" "9")) (re.* (re.union (str.to.re " ") (re.union (str.to.re "\u{0b}") (re.union (str.to.re "\u{0a}") (re.union (str.to.re "\u{0d}") (re.union (str.to.re "\u{09}") (str.to.re "\u{0c}"))))))))))) (re.++ ((_ re.capture 11) (re.++ (str.to.re "o") (re.++ (str.to.re "f") (re.+ (str.to.re " "))))) ((_ re.capture 12) (re.++ (re.union (re.++ (str.to.re "") (re.union (str.to.re " ") (re.union (str.to.re "\u{0b}") (re.union (str.to.re "\u{0a}") (re.union (str.to.re "\u{0d}") (re.union (str.to.re "\u{09}") (str.to.re "\u{0c}"))))))) (str.to.re "")) (re.++ (re.range "0" "9") (re.range "0" "9"))))))) (re.++ ((_ re.capture 13) (re.++ (re.range "0" "9") (re.++ (str.to.re "-") (re.++ (re.++ (re.range "0" "9") (re.range "0" "9")) (re.* (re.union (str.to.re " ") (re.union (str.to.re "\u{0b}") (re.union (str.to.re "\u{0a}") (re.union (str.to.re "\u{0d}") (re.union (str.to.re "\u{09}") (str.to.re "\u{0c}"))))))))))) (re.++ ((_ re.capture 14) (re.++ (str.to.re "o") (re.++ (str.to.re "f") (re.+ (str.to.re " "))))) ((_ re.capture 15) (re.++ (re.union (re.++ (str.to.re "") (re.union (str.to.re " ") (re.union (str.to.re "\u{0b}") (re.union (str.to.re "\u{0a}") (re.union (str.to.re "\u{0d}") (re.union (str.to.re "\u{09}") (str.to.re "\u{0c}"))))))) (str.to.re "")) (re.range "0" "9")))))) re.all))))	; match!==null
(assert (str.in.re ((_ str.extract 1) var0 (re.++ (re.*? re.allchar) (re.++ (re.union (re.union (re.union (re.union (re.++ ((_ re.capture 1) (re.++ (re.range "0" "9") (re.++ (str.to.re "-") (re.++ (re.++ (re.range "0" "9") (re.range "0" "9")) (re.* (re.union (str.to.re " ") (re.union (str.to.re "\u{0b}") (re.union (str.to.re "\u{0a}") (re.union (str.to.re "\u{0d}") (re.union (str.to.re "\u{09}") (str.to.re "\u{0c}"))))))))))) (re.++ ((_ re.capture 2) (re.++ (str.to.re "o") (re.++ (str.to.re "f") (re.+ (str.to.re " "))))) ((_ re.capture 3) (re.++ (re.union (re.++ (str.to.re "") (re.union (str.to.re " ") (re.union (str.to.re "\u{0b}") (re.union (str.to.re "\u{0a}") (re.union (str.to.re "\u{0d}") (re.union (str.to.re "\u{09}") (str.to.re "\u{0c}"))))))) (str.to.re "")) (re.++ (re.range "0" "9") (re.++ (re.range "0" "9") (re.++ (re.range "0" "9") (re.++ (re.range "0" "9") (re.range "0" "9"))))))))) (re.++ ((_ re.capture 4) (re.++ (re.range "0" "9") (re.++ (str.to.re "-") (re.++ (re.++ (re.range "0" "9") (re.range "0" "9")) (re.* (re.union (str.to.re " ") (re.union (str.to.re "\u{0b}") (re.union (str.to.re "\u{0a}") (re.union (str.to.re "\u{0d}") (re.union (str.to.re "\u{09}") (str.to.re "\u{0c}"))))))))))) (re.++ ((_ re.capture 5) (re.++ (str.to.re "o") (re.++ (str.to.re "f") (re.+ (str.to.re " "))))) ((_ re.capture 6) (re.++ (re.union (re.++ (str.to.re "") (re.union (str.to.re " ") (re.union (str.to.re "\u{0b}") (re.union (str.to.re "\u{0a}") (re.union (str.to.re "\u{0d}") (re.union (str.to.re "\u{09}") (str.to.re "\u{0c}"))))))) (str.to.re "")) (re.++ (re.range "0" "9") (re.++ (re.range "0" "9") (re.++ (re.range "0" "9") (re.range "0" "9"))))))))) (re.++ ((_ re.capture 7) (re.++ (re.range "0" "9") (re.++ (str.to.re "-") (re.++ (re.++ (re.range "0" "9") (re.range "0" "9")) (re.* (re.union (str.to.re " ") (re.union (str.to.re "\u{0b}") (re.union (str.to.re "\u{0a}") (re.union (str.to.re "\u{0d}") (re.union (str.to.re "\u{09}") (str.to.re "\u{0c}"))))))))))) (re.++ ((_ re.capture 8) (re.++ (str.to.re "o") (re.++ (str.to.re "f") (re.+ (str.to.re " "))))) ((_ re.capture 9) (re.++ (re.union (re.++ (str.to.re "") (re.union (str.to.re " ") (re.union (str.to.re "\u{0b}") (re.union (str.to.re "\u{0a}") (re.union (str.to.re "\u{0d}") (re.union (str.to.re "\u{09}") (str.to.re "\u{0c}"))))))) (str.to.re "")) (re.++ (re.range "0" "9") (re.++ (re.range "0" "9") (re.range "0" "9")))))))) (re.++ ((_ re.capture 10) (re.++ (re.range "0" "9") (re.++ (str.to.re "-") (re.++ (re.++ (re.range "0" "9") (re.range "0" "9")) (re.* (re.union (str.to.re " ") (re.union (str.to.re "\u{0b}") (re.union (str.to.re "\u{0a}") (re.union (str.to.re "\u{0d}") (re.union (str.to.re "\u{09}") (str.to.re "\u{0c}"))))))))))) (re.++ ((_ re.capture 11) (re.++ (str.to.re "o") (re.++ (str.to.re "f") (re.+ (str.to.re " "))))) ((_ re.capture 12) (re.++ (re.union (re.++ (str.to.re "") (re.union (str.to.re " ") (re.union (str.to.re "\u{0b}") (re.union (str.to.re "\u{0a}") (re.union (str.to.re "\u{0d}") (re.union (str.to.re "\u{09}") (str.to.re "\u{0c}"))))))) (str.to.re "")) (re.++ (re.range "0" "9") (re.range "0" "9"))))))) (re.++ ((_ re.capture 13) (re.++ (re.range "0" "9") (re.++ (str.to.re "-") (re.++ (re.++ (re.range "0" "9") (re.range "0" "9")) (re.* (re.union (str.to.re " ") (re.union (str.to.re "\u{0b}") (re.union (str.to.re "\u{0a}") (re.union (str.to.re "\u{0d}") (re.union (str.to.re "\u{09}") (str.to.re "\u{0c}"))))))))))) (re.++ ((_ re.capture 14) (re.++ (str.to.re "o") (re.++ (str.to.re "f") (re.+ (str.to.re " "))))) ((_ re.capture 15) (re.++ (re.union (re.++ (str.to.re "") (re.union (str.to.re " ") (re.union (str.to.re "\u{0b}") (re.union (str.to.re "\u{0a}") (re.union (str.to.re "\u{0d}") (re.union (str.to.re "\u{09}") (str.to.re "\u{0c}"))))))) (str.to.re "")) (re.range "0" "9")))))) re.all))) (str.to.re "\x00")))
;match[1]==null
(check-sat)
(get-model)
(pop 1)
(push 1)
(assert (str.in.re var0 (re.* (re.range "\x01" "\xff"))))
(assert (not (str.in.re var0 (re.++ (re.*? re.allchar) (re.++ (re.union (re.union (re.union (re.union (re.++ ((_ re.capture 1) (re.++ (re.range "0" "9") (re.++ (str.to.re "-") (re.++ (re.++ (re.range "0" "9") (re.range "0" "9")) (re.* (re.union (str.to.re " ") (re.union (str.to.re "\u{0b}") (re.union (str.to.re "\u{0a}") (re.union (str.to.re "\u{0d}") (re.union (str.to.re "\u{09}") (str.to.re "\u{0c}"))))))))))) (re.++ ((_ re.capture 2) (re.++ (str.to.re "o") (re.++ (str.to.re "f") (re.+ (str.to.re " "))))) ((_ re.capture 3) (re.++ (re.union (re.++ (str.to.re "") (re.union (str.to.re " ") (re.union (str.to.re "\u{0b}") (re.union (str.to.re "\u{0a}") (re.union (str.to.re "\u{0d}") (re.union (str.to.re "\u{09}") (str.to.re "\u{0c}"))))))) (str.to.re "")) (re.++ (re.range "0" "9") (re.++ (re.range "0" "9") (re.++ (re.range "0" "9") (re.++ (re.range "0" "9") (re.range "0" "9"))))))))) (re.++ ((_ re.capture 4) (re.++ (re.range "0" "9") (re.++ (str.to.re "-") (re.++ (re.++ (re.range "0" "9") (re.range "0" "9")) (re.* (re.union (str.to.re " ") (re.union (str.to.re "\u{0b}") (re.union (str.to.re "\u{0a}") (re.union (str.to.re "\u{0d}") (re.union (str.to.re "\u{09}") (str.to.re "\u{0c}"))))))))))) (re.++ ((_ re.capture 5) (re.++ (str.to.re "o") (re.++ (str.to.re "f") (re.+ (str.to.re " "))))) ((_ re.capture 6) (re.++ (re.union (re.++ (str.to.re "") (re.union (str.to.re " ") (re.union (str.to.re "\u{0b}") (re.union (str.to.re "\u{0a}") (re.union (str.to.re "\u{0d}") (re.union (str.to.re "\u{09}") (str.to.re "\u{0c}"))))))) (str.to.re "")) (re.++ (re.range "0" "9") (re.++ (re.range "0" "9") (re.++ (re.range "0" "9") (re.range "0" "9"))))))))) (re.++ ((_ re.capture 7) (re.++ (re.range "0" "9") (re.++ (str.to.re "-") (re.++ (re.++ (re.range "0" "9") (re.range "0" "9")) (re.* (re.union (str.to.re " ") (re.union (str.to.re "\u{0b}") (re.union (str.to.re "\u{0a}") (re.union (str.to.re "\u{0d}") (re.union (str.to.re "\u{09}") (str.to.re "\u{0c}"))))))))))) (re.++ ((_ re.capture 8) (re.++ (str.to.re "o") (re.++ (str.to.re "f") (re.+ (str.to.re " "))))) ((_ re.capture 9) (re.++ (re.union (re.++ (str.to.re "") (re.union (str.to.re " ") (re.union (str.to.re "\u{0b}") (re.union (str.to.re "\u{0a}") (re.union (str.to.re "\u{0d}") (re.union (str.to.re "\u{09}") (str.to.re "\u{0c}"))))))) (str.to.re "")) (re.++ (re.range "0" "9") (re.++ (re.range "0" "9") (re.range "0" "9")))))))) (re.++ ((_ re.capture 10) (re.++ (re.range "0" "9") (re.++ (str.to.re "-") (re.++ (re.++ (re.range "0" "9") (re.range "0" "9")) (re.* (re.union (str.to.re " ") (re.union (str.to.re "\u{0b}") (re.union (str.to.re "\u{0a}") (re.union (str.to.re "\u{0d}") (re.union (str.to.re "\u{09}") (str.to.re "\u{0c}"))))))))))) (re.++ ((_ re.capture 11) (re.++ (str.to.re "o") (re.++ (str.to.re "f") (re.+ (str.to.re " "))))) ((_ re.capture 12) (re.++ (re.union (re.++ (str.to.re "") (re.union (str.to.re " ") (re.union (str.to.re "\u{0b}") (re.union (str.to.re "\u{0a}") (re.union (str.to.re "\u{0d}") (re.union (str.to.re "\u{09}") (str.to.re "\u{0c}"))))))) (str.to.re "")) (re.++ (re.range "0" "9") (re.range "0" "9"))))))) (re.++ ((_ re.capture 13) (re.++ (re.range "0" "9") (re.++ (str.to.re "-") (re.++ (re.++ (re.range "0" "9") (re.range "0" "9")) (re.* (re.union (str.to.re " ") (re.union (str.to.re "\u{0b}") (re.union (str.to.re "\u{0a}") (re.union (str.to.re "\u{0d}") (re.union (str.to.re "\u{09}") (str.to.re "\u{0c}"))))))))))) (re.++ ((_ re.capture 14) (re.++ (str.to.re "o") (re.++ (str.to.re "f") (re.+ (str.to.re " "))))) ((_ re.capture 15) (re.++ (re.union (re.++ (str.to.re "") (re.union (str.to.re " ") (re.union (str.to.re "\u{0b}") (re.union (str.to.re "\u{0a}") (re.union (str.to.re "\u{0d}") (re.union (str.to.re "\u{09}") (str.to.re "\u{0c}"))))))) (str.to.re "")) (re.range "0" "9")))))) re.all)))))	; match == null
(check-sat)
(get-model)
(pop 1)
(exit)
